"Example"
24 = mDIM
1 = nBLOCK
24 = bLOCKsTRUCT
1 1 1 1 1 1 1 1 1 1 1 1 1 1 1 1 1 1 1 1 1 1 1 1 
0 1 1 13 0.000972
0 1 1 14 0.002221
0 1 1 15 -0.006777
0 1 1 16 0.009020
0 1 1 17 0.009020
0 1 1 18 -0.005177
0 1 1 19 -0.007177
0 1 1 20 -0.000378
0 1 1 21 -0.005977
0 1 1 22 -0.000178
0 1 1 23 0.008220
0 1 1 24 -0.003778
0 1 2 13 0.004221
0 1 2 14 -0.004474
0 1 2 15 -0.000074
0 1 2 16 -0.000674
0 1 2 17 0.000725
0 1 2 18 0.002325
0 1 2 19 0.000925
0 1 2 20 -0.003274
0 1 2 21 -0.002274
0 1 2 22 -0.000074
0 1 2 23 0.000725
0 1 2 24 0.001925
0 1 3 13 0.010819
0 1 3 14 -0.000474
0 1 3 15 -0.002474
0 1 3 16 0.002525
0 1 3 17 -0.003074
0 1 3 18 -0.003274
0 1 3 19 -0.002474
0 1 3 20 0.000525
0 1 3 21 0.001125
0 1 3 22 0.000125
0 1 3 23 -0.003274
0 1 3 24 -0.000074
0 1 4 13 0.000421
0 1 4 14 0.002525
0 1 4 15 0.002125
0 1 4 16 0.001925
0 1 4 17 -0.001074
0 1 4 18 -0.000474
0 1 4 19 0.001325
0 1 4 20 -0.002274
0 1 4 21 0.000725
0 1 4 22 -0.001274
0 1 4 23 0.001125
0 1 4 24 -0.005073
0 1 5 13 0.012019
0 1 5 14 -0.002074
0 1 5 15 0.000525
0 1 5 16 -0.004274
0 1 5 17 -0.003074
0 1 5 18 0.002725
0 1 5 19 -0.001874
0 1 5 20 -0.000074
0 1 5 21 -0.000074
0 1 5 22 -0.000474
0 1 5 23 -0.003674
0 1 5 24 0.000325
0 1 6 13 -0.006377
0 1 6 14 0.001725
0 1 6 15 0.000525
0 1 6 16 -0.001474
0 1 6 17 0.000525
0 1 6 18 -0.002874
0 1 6 19 0.001525
0 1 6 20 0.001125
0 1 6 21 0.001525
0 1 6 22 0.000925
0 1 6 23 0.002725
0 1 6 24 0.000126
0 1 7 13 0.001021
0 1 7 14 0.000525
0 1 7 15 0.000125
0 1 7 16 -0.002274
0 1 7 17 0.000325
0 1 7 18 0.001325
0 1 7 19 0.000525
0 1 7 20 0.000525
0 1 7 21 0.000125
0 1 7 22 -0.000074
0 1 7 23 -0.001674
0 1 7 24 -0.000474
0 1 8 13 0.007820
0 1 8 14 -0.001074
0 1 8 15 -0.001874
0 1 8 16 -0.003674
0 1 8 17 -0.003674
0 1 8 18 -0.001874
0 1 8 19 0.002725
0 1 8 20 -0.001874
0 1 8 21 -0.000674
0 1 8 22 0.000925
0 1 8 23 -0.000874
0 1 8 24 0.004125
0 1 9 13 -0.002378
0 1 9 14 0.000925
0 1 9 15 -0.003274
0 1 9 16 -0.000074
0 1 9 17 0.001525
0 1 9 18 0.002125
0 1 9 19 -0.000474
0 1 9 20 0.002925
0 1 9 21 0.001125
0 1 9 22 -0.001674
0 1 9 23 -0.001274
0 1 9 24 0.000525
0 1 10 13 -0.004577
0 1 10 14 -0.000874
0 1 10 15 0.001725
0 1 10 16 0.000525
0 1 10 17 -0.000074
0 1 10 18 0.002925
0 1 10 19 0.003325
0 1 10 20 0.000126
0 1 10 21 -0.000674
0 1 10 22 -0.000074
0 1 10 23 -0.002074
0 1 10 24 -0.000274
0 1 11 13 -0.009977
0 1 11 14 -0.000274
0 1 11 15 0.003725
0 1 11 16 -0.000274
0 1 11 17 0.000125
0 1 11 18 0.000925
0 1 11 19 0.000325
0 1 11 20 0.000525
0 1 11 21 0.002525
0 1 11 22 -0.000274
0 1 11 23 -0.000074
0 1 11 24 0.002725
0 1 12 13 -0.013976
0 1 12 14 0.001325
0 1 12 15 0.005724
0 1 12 16 -0.001274
0 1 12 17 -0.001274
0 1 12 18 0.001325
0 1 12 19 0.001325
0 1 12 20 0.002125
0 1 12 21 0.002525
0 1 12 22 0.002125
0 1 12 23 0.000125
0 1 12 24 -0.000074
1 1 1 1 1
2 1 2 2 1
3 1 3 3 1
4 1 4 4 1
5 1 5 5 1
6 1 6 6 1
7 1 7 7 1
8 1 8 8 1
9 1 9 9 1
10 1 10 10 1
11 1 11 11 1
12 1 12 12 1
13 1 13 13 1
14 1 14 14 1
15 1 15 15 1
16 1 16 16 1
17 1 17 17 1
18 1 18 18 1
19 1 19 19 1
20 1 20 20 1
21 1 21 21 1
22 1 22 22 1
23 1 23 23 1
24 1 24 24 1
